SPARKNaCl/why3-z3/sparknacl-aes.adb_537_38_range_check4_1.smt2
;; produced by z3_gnatprove.drv ;;
(set-info :smt-lib-version 2.5)
(set-info :source |VC generated by SPARK 2014|)
(set-info :category industrial)
(set-info :status unknown)
;;; generated by SMT-LIB2 driver
;;; SMT-LIB2 driver: bit-vectors, common part
;;; SMT-LIB2: integer arithmetic
(declare-datatypes ()
  ((int__ref (int__refqtmk (int__content Int)))))

(declare-sort byte 0)

;; "to_rep"
(declare-fun to_rep (byte) (_ BitVec 8))

;; "of_rep"
(declare-fun of_rep ((_ BitVec 8)) byte)

;; "inversion_axiom"
(assert
  (forall ((x byte)) (! (= (of_rep (to_rep x)) x) :pattern ((to_rep x)) )))

;; "range_axiom"
(assert true)

;; "coerce_axiom"
(assert
  (forall ((x (_ BitVec 8)))
    (! (= (to_rep (of_rep x)) x) :pattern ((to_rep (of_rep x))) )))

(declare-sort map1 0)

;; "has_bounds"
(declare-fun has_bounds (map1
  Int
  Int) Bool)

(declare-const raw_key map1)

(declare-sort u32 0)

;; "to_rep"
(declare-fun to_rep1 (u32) (_ BitVec 32))

;; "of_rep"
(declare-fun of_rep1 ((_ BitVec 32)) u32)

;; "inversion_axiom"
(assert
  (forall ((x u32)) (! (= (of_rep1 (to_rep1 x)) x) :pattern ((to_rep1 x)) )))

;; "range_axiom"
(assert true)

;; "coerce_axiom"
(assert
  (forall ((x (_ BitVec 32)))
    (! (= (to_rep1 (of_rep1 x)) x) :pattern ((to_rep1 (of_rep1 x))) )))

(declare-sort map2 0)

(declare-datatypes ()
  ((map__ref (map__refqtmk (map__content map2)))))

;; "has_bounds"
(declare-fun has_bounds1 (map2
  Int
  Int) Bool)

;; "get"
(declare-fun get (map2
  Int) u32)

(declare-sort tinteger_32B 0)

;; "tinteger_32B'int"
(declare-fun tinteger_32Bqtint (tinteger_32B) Int)

;; "tinteger_32B'axiom"
(assert
  (forall ((i tinteger_32B))
    (and
      (<= (- 2147483648) (tinteger_32Bqtint i))
      (<= (tinteger_32Bqtint i) 2147483647))))

;; "in_range"
(define-fun in_range ((x Int)) Bool
  (and (<= (- 2147483648) x) (<= x 2147483647)))

;; "to_rep"
(define-fun to_rep2 ((x tinteger_32B)) Int
  (tinteger_32Bqtint x))

;; "of_rep"
(declare-fun of_rep2 (Int) tinteger_32B)

;; "inversion_axiom"
(assert
  (forall ((x tinteger_32B))
    (! (= (of_rep2 (to_rep2 x)) x) :pattern ((to_rep2 x)) )))

;; "range_axiom"
(assert
  (forall ((x tinteger_32B))
    (! (in_range (to_rep2 x)) :pattern ((to_rep2 x)) )))

;; "coerce_axiom"
(assert
  (forall ((x Int))
    (! (=> (in_range x) (= (to_rep2 (of_rep2 x)) x)) :pattern ((to_rep2
                                                                 (of_rep2 x))) )))

(declare-const key map2)

;; "key'unused"
(define-fun keyqtunused () map__ref
  (map__refqtmk key))

;; "Assume"
(assert (has_bounds raw_key 0 15))

;; "Assume"
(assert true)

;; "Assume"
(assert (has_bounds1 key 0 3))

(declare-const i Int)

;; "i'unused"
(define-fun iqtunused () int__ref
  (int__refqtmk i))

;; "H"
(assert (= i 0))

;; "int__content'result'unused"
(define-fun int__contentqtresultqtunused () Int
  i)

;; "o"
(define-fun o () Bool
  (ite (<= i 3) true false))

;; "infix <='result'unused"
(define-fun infix_lseqqtresultqtunused () Bool
  o)

;; "int__content'result'unused"
(define-fun int__contentqtresultqtunused1 () Int
  i)

;; "o"
(define-fun o1 () Bool
  (ite (<= 0 i) true false))

;; "infix <='result'unused"
(define-fun infix_lseqqtresultqtunused1 () Bool
  o1)

;; "o"
(define-fun o2 () Bool
  (and o1 o))

;; "andb'result'unused"
(define-fun andbqtresultqtunused () Bool
  o2)

;; "H"
(assert (= o2 true))

;; "temp___loop_entry_978'unused"
(define-fun temp___loop_entry_978qtunused () map2
  key)

;; "map__content'result'unused"
(define-fun map__contentqtresultqtunused () map2
  key)

(declare-const key1 map2)

(declare-const i1 Int)

;; "i'unused"
(define-fun iqtunused1 () int__ref
  (int__refqtmk i1))

;; "key'unused"
(define-fun keyqtunused1 () map__ref
  (map__refqtmk key1))

;; "Assume"
(assert
  (= (and (ite (and
                 (has_bounds1 key1 0 3)
                 (forall ((temp___979 Int))
                   (=>
                     (and (<= 0 temp___979) (<= temp___979 3))
                     (=>
                       (or
                         (< 3 temp___979)
                         (or (< temp___979 0) (<= i1 temp___979)))
                       (= (get key1 temp___979) (get key temp___979))))))
            true
            false) (ite (and (<= 0 i1) (<= i1 3)) true false)) true))

;; "int__content'result'unused"
(define-fun int__contentqtresultqtunused2 () Int
  i1)

;; "o"
(define-fun o3 () Int
  (* 4 i1))

;; "infix *'result'unused"
(define-fun infix_asqtresultqtunused () Int
  o3)

;; "temp___974"
(define-fun temp___974 () Int
  (+ o3 3))

;; "infix +'result'unused"
(define-fun infix_plqtresultqtunused () Int
  temp___974)

;; "int__content'result'unused"
(define-fun int__contentqtresultqtunused3 () Int
  i1)

;; "temp___973"
(define-fun temp___973 () Int
  (* 4 i1))

;; "infix *'result'unused"
(define-fun infix_asqtresultqtunused1 () Int
  temp___973)

;; "H"
(assert (<= temp___973 temp___974))

;; Goal "def'vc"
;; File "sparknacl-aes.ads", line 22, characters 0-0
(assert
  (not (<= temp___974 15)))

(check-sat)
